x = 22;
y = 12;
c = 79;
n = 29;

p = [31  98  23  71  32  26  69  62  23  20  69  59  51  98  37  44  90  93  72  33  91  72  14  98  81  22  43  49  44];
w = [4  1  9  10  3  10  2  4  9  8  6  3  4  10  9  5  4  9  2  7  5  3  5  4  8  5  4  6  10];
s = [6  10  9  4  9  10  10  11  1  8  2  12  11  10  5  4  10  1  8  10  8  7  7  2  11  7  9  2  5];
